10
0 622 930 240 804 261 699 837 715 520
622 0 456 697 190 574 258 1033 553 102
930 456 0 886 343 754 237 928 384 523
240 697 886 0 853 134 683 601 588 607
804 190 343 853 0 723 247 1103 573 291
261 574 754 134 723 0 549 602 475 490
699 258 237 683 247 549 0 858 326 299
837 1033 928 601 1103 602 858 0 550 988
715 553 384 588 573 475 326 550 0 548
520 102 523 607 291 490 299 988 548 0
